Argumentos: 
./solver.release -i 28 -t 86400 -a 7 -h 86400 -w Testes/R2-i28 -m R2_modeloCom2345.mod -o R2_modeloCom2345.mod 
Seed: 1623016528
hidden-TXT/Sc-n110w4.txt
hidden-TXT/H0-n110w4-2.txt
hidden-TXT/WD-n110w4-5.txt hidden-TXT/WD-n110w4-1.txt hidden-TXT/WD-n110w4-3.txt hidden-TXT/WD-n110w4-0.txt 
Reading model section from R2_modeloCom2345.mod...
367 lines were read
Reading data section from Testes/R2-i28/28.dat...
19773 lines were read
Generating obj...
Generating H1turnoDia...
Generating H2coberturaMinima...
Generating H3AsucessaoTurnos...
Generating H3BsucessaoTurnos...
Generating H4qualificacao...
Generating S1coberturaOtima...
Generating S2d...
Generating S2dHist...
Generating S2b...
Generating S2bHist...
Generating auxS5...
Generating S6a...
Generating S6b...
Generating auxS7...
Generating S7...
Model has been successfully generated
Writing problem data to `Testes/R2-i28/28.lp'...
513863 lines were written
CPX0000  Tried aggregator 2 times.
CPX0000  MIP Presolve eliminated 21932 rows and 78902 columns.
CPX0000  MIP Presolve modified 5930 coefficients.
CPX0000  Aggregator did 13 substitutions.
CPX0000  Reduced MIP has 23422 rows, 33912 columns, and 298363 nonzeros.
CPX0000  Reduced MIP has 33290 binaries, 622 generals, 0 SOSs, and 0 indicators.
CPX0000  Presolve time = 0.54 sec. (329.91 ticks)
CPX0000  Found incumbent of value 640225.000000 after 1.38 sec. (1045.19 ticks)
[1m[30m[ZEN] [0m00:00:01 [1m[34m 640225.00[1m[32m  100.00%
[0mCPX0000  Probing time = 0.04 sec. (11.10 ticks)
CPX0000  Tried aggregator 1 time.
CPX0000  Reduced MIP has 23422 rows, 33912 columns, and 298363 nonzeros.
CPX0000  Reduced MIP has 33290 binaries, 622 generals, 0 SOSs, and 0 indicators.
CPX0000  Presolve time = 0.15 sec. (109.25 ticks)
CPX0000  Probing time = 0.04 sec. (10.49 ticks)
CPX0000  Clique table members: 14964.
CPX0000  MIP emphasis: balance optimality and feasibility.
CPX0000  MIP search method: dynamic search.
CPX0000  Parallel mode: none, using 1 thread.
CPX0000  Root relaxation solution time = 3.57 sec. (1728.80 ticks)
CPX0000
CPX0000          Nodes                                         Cuts/
CPX0000     Node  Left     Objective  IInf  Best Integer    Best Bound    ItCnt     Gap
CPX0000
CPX0000  *     0+    0                       640225.0000        0.0000     8556  100.00%
CPX0000        0     0      680.0000  1215   640225.0000      680.0000     8556   99.89%
CPX0000        0     0      763.9881  1200   640225.0000     Cuts: 784    11093   99.88%
CPX0000        0     0      850.6667  1365   640225.0000     Cuts: 748    14098   99.87%
CPX0000        0     0      864.6667  1561   640225.0000     Cuts: 561    16394   99.86%
CPX0000  *     0+    0                       188085.0000      864.6667    16394   99.54%
[1m[30m[ZEN] [0m00:00:16 [1m[34m 188085.00[1m[32m   99.54%
[0mCPX0000        0     0      865.1429  1646   188085.0000     Cuts: 564    19204   99.54%
CPX0000        0     0      865.1429  1750   188085.0000     Cuts: 450    23452   99.54%
CPX0000        0     0      872.6429  1394   188085.0000     Cuts: 146    25020   99.54%
CPX0000        0     0      872.6429  1766   188085.0000     Cuts: 361    27719   99.54%
CPX0000  *     0+    0                         1530.0000      872.6429    27719   42.96%
CPX0000  *     0+    0                         1260.0000      872.6429    27719   30.74%
[1m[30m[ZEN] [0m00:00:43 [1m[34m   1260.00[1m[32m   30.74%
[0mCPX0000        0     2      872.6429   906     1260.0000      873.6429    27719   30.66%
CPX0000  Elapsed time = 43.35 sec. (20929.14 ticks, tree = 0.00 MB
CPX0000        1     3      877.6429   819     1260.0000      873.6429    30560   30.66%
CPX0000        2     4      877.6429   911     1260.0000      877.6429    31623   30.35%
CPX0000        3     5      880.9762   915     1260.0000      877.6429    32531   30.35%
CPX0000        7     9      877.6429   813     1260.0000      877.6429    33100   30.35%
CPX0000       10    12      877.6429   846     1260.0000      877.6429    33751   30.35%
CPX0000       15    17      877.6429   906     1260.0000      877.6429    34604   30.35%
CPX0000       18    20      877.6429   866     1260.0000      877.6429    36342   30.35%
CPX0000       21    23      877.6429   871     1260.0000      877.6429    36726   30.35%
CPX0000       25    27      890.9762   933     1260.0000      877.6429    37420   30.35%
CPX0000       30    32      891.8095   902     1260.0000      877.6429    41671   30.35%
CPX0000  Elapsed time = 54.47 sec. (26178.90 ticks, tree = 7.52 MB
CPX0000       39    41      937.1429   702     1260.0000      877.6429    43658   30.35%
CPX0000       73    75      985.0000   476     1260.0000      877.6429    45878   30.35%
CPX0000      119   121     1010.0000   423     1260.0000      877.6429    47675   30.35%
CPX0000      145   147     1010.0000   449     1260.0000      877.6429    52062   30.35%
CPX0000      155   157     1010.0000   350     1260.0000      877.6429    57068   30.35%
CPX0000      161   163     1010.0000   331     1260.0000      877.6429    61984   30.35%
CPX0000      166   168     1014.0000   343     1260.0000      877.6429    67374   30.35%
CPX0000      191   193     1030.0000   184     1260.0000      877.6429    70940   30.35%
CPX0000      236   238     1040.0000    59     1260.0000      877.6429    74508   30.35%
CPX0000      290   292     1040.0000    28     1260.0000      877.6429    75974   30.35%
CPX0000  Elapsed time = 74.17 sec. (36743.98 ticks, tree = 84.95 MB
CPX0000      340   342     1040.0000    15     1260.0000      877.6429    78720   30.35%
CPX0000      386   388     1085.0000    86     1260.0000      877.6429    83084   30.35%
CPX0000      426   428     1110.0000    15     1260.0000      877.6429    86947   30.35%
CPX0000      453   455     1110.0000   100     1260.0000      877.6429    90556   30.35%
CPX0000  *   490+  490                         1240.0000      877.6429    93857   29.22%
CPX0000      490   492     1120.0000     4     1240.0000      877.6429    93857   29.22%
[1m[30m[ZEN] [0m00:01:24 [1m[34m   1240.00[1m[32m   29.22%
[0mCPX0000  *   500+  500                         1210.0000      877.6429    94212   27.47%
CPX0000  *   500+  500                         1200.0000      877.6429    94212   26.86%
[1m[30m[ZEN] [0m00:01:24 [1m[34m   1200.00[1m[32m   26.86%
[0mCPX0000  *   525   522      integral     0     1150.0000      877.6429    95260   23.68%
[1m[30m[ZEN] [0m00:01:25 [1m[34m   1150.00[1m[32m   23.68%
[0mCPX0000      540   537      890.5000   793     1150.0000      877.6429    97518   23.68%
CPX0000      574   571      970.0000   523     1150.0000      877.6429   100289   23.68%
CPX0000      617   614      970.0000   378     1150.0000      877.6429   102107   23.68%
CPX0000  *   625+  602                         1130.0000      877.6429   102440   22.33%
[1m[30m[ZEN] [0m00:01:30 [1m[34m   1130.00[1m[32m   22.33%
[0mCPX0000      649   628      970.0000   286     1130.0000      877.6429   105493   22.33%
CPX0000  Elapsed time = 92.51 sec. (46914.22 ticks, tree = 186.30 MB
CPX0000      657   636      970.6667   478     1130.0000      877.6429   109695   22.33%
CPX0000      668   647      990.6667   303     1130.0000      877.6429   113967   22.33%
CPX0000      700   679     1030.0000    68     1130.0000      877.6429   115980   22.33%
CPX0000  *   735+  474                         1010.0000      946.2500   151481    6.31%
CPX0000  *   735+  316                         1000.0000      995.0000   158002    0.50%
CPX0000  *   735   209      integral     0     1000.0000      995.0000   168155    0.50%
CPX0000
CPX0000  GUB cover cuts applied:  490
CPX0000  Clique cuts applied:  879
CPX0000  Cover cuts applied:  64
CPX0000  Mixed integer rounding cuts applied:  115
CPX0000  Zero-half cuts applied:  483
CPX0000  Lift and project cuts applied:  25
CPX0000  Gomory fractional cuts applied:  96
CPX0000
CPX0000  Root node processing (before b&c):
CPX0000    Real time             =   43.28 sec. (20874.10 ticks)
CPX0000  Sequential b&c:
CPX0000    Real time             =  121.50 sec. (66362.47 ticks)
CPX0000                            ------------
CPX0000  Total (root+branch&cut) =  164.78 sec. (87236.57 ticks)
[1m[30m[ZEN] [0m00:02:44 [1m[34m   1000.00[1m[32m    0.00%
[0mH2 understaffing: 0
H3 shiftTypeSuccessions: 0
S1 optimalCoverage: 30
S2a consecutiveShift: 16740 = (1116,0 )
S2b consecutiveWorkingDays: 23730 = ( 791,0 )
S3 consecutiveDaysOff: 15690 = ( 523,0 )
S4 preferences: 130
S5 completeWeekend: 0
S6 totalAssignments: 840
S7 totalWorkingWeekeends: 0
 

Cost Solution: 57160

       |M|T|W|T|F|S|S| |M|T|W|T|F|S|S| |M|T|W|T|F|S|S| |M|T|W|T|F|S|S|
------------------------------------------------------------------------
HN_0   |-|N|-|-|N|-|-| |E|E|E|-|N|-|-| |E|E|E|E|-|N|N| |-|-|D|N|-|E|E|
HN_1   |-|-|D|D|-|-|-| |-|E|-|-|-|-|-| |-|E|-|D|-|-|-| |D|D|D|-|-|-|E|
HN_2   |-|E|-|-|-|-|-| |-|N|-|-|E|-|-| |-|D|-|-|-|-|-| |-|-|L|L|-|-|-|
HN_3   |-|E|E|E|E|-|-| |E|D|D|E|N|-|-| |N|N|N|-|D|D|L| |N|N|-|E|D|D|D|
HN_4   |-|-|-|-|-|-|-| |D|-|N|N|-|-|-| |N|-|L|-|E|E|E| |-|-|E|E|D|-|-|
HN_5   |-|D|-|-|D|-|-| |L|L|-|-|-|-|-| |-|-|L|L|N|-|-| |-|L|-|-|N|N|N|
HN_6   |-|L|-|L|L|N|N| |N|N|-|-|-|E|D| |L|-|L|-|-|-|-| |E|E|-|L|N|-|-|
HN_7   |-|D|E|E|E|E|E| |-|D|L|-|L|N|N| |-|-|-|E|D|-|-| |-|D|-|D|-|-|-|
HN_8   |D|E|E|L|-|E|D| |-|E|E|-|-|-|-| |D|L|-|-|E|-|-| |L|-|-|D|-|L|L|
HN_9   |E|D|L|N|-|-|-| |-|L|-|-|D|D|D| |-|-|-|-|-|-|-| |D|N|N|-|E|-|-|
HN_10  |D|-|-|D|D|N|N| |N|N|-|L|N|N|N| |-|-|N|N|N|-|-| |E|E|E|N|-|-|-|
HN_11  |E|-|D|-|L|-|-| |-|-|D|-|L|-|-| |-|-|-|-|E|-|-| |-|E|-|-|-|-|D|
HN_12  |N|-|N|N|-|-|-| |-|-|-|D|-|L|N| |N|-|D|E|D|-|-| |-|-|E|-|-|-|-|
HN_13  |E|-|-|-|-|D|E| |-|-|N|N|N|-|-| |N|N|N|-|D|E|D| |D|-|-|E|D|-|-|
HN_14  |-|N|-|D|-|-|-| |-|N|-|L|-|-|-| |D|D|L|L|-|-|-| |N|-|-|-|-|E|D|
HN_15  |-|-|L|-|-|D|D| |-|D|D|D|D|-|-| |E|E|E|N|-|-|-| |-|L|L|-|-|N|N|
HN_16  |D|E|D|E|D|-|-| |L|L|L|L|L|-|-| |L|L|L|L|-|D|E| |L|L|L|-|E|E|D|
HN_17  |L|-|-|-|L|L|L| |-|N|-|N|-|-|-| |D|-|-|-|-|-|-| |E|D|-|D|N|-|-|
HN_18  |-|D|N|N|N|-|-| |D|E|N|N|N|-|-| |E|D|D|D|-|L|L| |L|L|L|-|L|L|L|
HN_19  |-|N|N|N|N|-|-| |D|D|D|E|-|E|E| |-|-|-|-|D|-|-| |N|N|N|-|L|-|-|
NU_20  |L|L|-|-|D|-|-| |-|-|L|L|-|N|N| |-|E|E|-|L|-|-| |-|-|-|L|-|-|-|
NU_21  |E|-|E|E|L|L|L| |-|E|D|E|E|-|-| |D|D|D|D|D|-|-| |E|-|E|E|E|N|N|
NU_22  |D|E|E|E|E|-|-| |E|E|E|E|E|-|-| |E|D|N|-|E|L|L| |N|-|L|L|L|L|L|
NU_23  |E|L|-|L|-|-|-| |-|L|L|-|-|-|-| |L|-|D|-|L|-|-| |-|L|L|L|-|-|-|
NU_24  |-|N|-|-|-|-|-| |L|-|-|E|-|-|-| |D|D|E|-|L|-|-| |D|D|-|E|N|-|-|
NU_25  |-|L|-|-|D|-|-| |-|-|-|D|D|L|L| |N|-|D|L|N|-|-| |E|-|-|-|-|-|-|
NU_26  |-|D|-|-|-|L|L| |-|N|-|L|-|-|-| |-|L|-|-|-|-|-| |-|-|D|-|L|-|-|
NU_27  |N|-|-|D|-|-|-| |-|-|D|-|-|-|-| |N|-|-|-|-|-|D| |-|-|-|-|D|-|-|
NU_28  |-|-|E|-|L|-|-| |L|N|-|-|E|-|-| |-|-|-|-|E|N|N| |-|E|D|-|L|-|-|
NU_29  |N|-|L|L|-|-|-| |D|-|D|-|D|E|N| |-|E|E|-|E|D|E| |E|E|-|L|-|-|-|
NU_30  |-|D|L|-|-|E|E| |N|-|E|D|-|-|-| |N|-|-|-|D|-|-| |-|L|-|-|L|-|-|
NU_31  |L|L|-|-|-|D|D| |L|L|-|-|-|-|-| |-|-|D|E|L|-|-| |D|-|L|-|-|-|-|
NU_32  |N|-|N|N|N|N|N| |-|D|D|D|E|-|-| |E|D|E|D|N|-|-| |N|-|D|D|L|N|N|
NU_33  |D|-|L|L|L|-|-| |D|L|L|L|L|-|-| |E|D|D|-|D|D|D| |E|E|-|E|E|D|D|
NU_34  |-|-|E|-|-|-|-| |-|-|-|D|-|D|E| |-|-|-|E|-|-|-| |-|-|-|N|-|-|-|
NU_35  |D|E|-|-|E|-|-| |-|E|E|D|E|E|E| |D|-|E|-|D|-|-| |-|-|E|D|D|-|-|
NU_36  |D|D|E|-|N|-|-| |-|L|N|-|-|-|-| |-|L|-|D|N|-|-| |N|N|-|-|-|-|-|
NU_37  |N|N|-|L|L|-|-| |E|-|L|-|-|-|-| |L|L|N|-|-|-|-| |L|-|-|-|D|-|-|
NU_38  |L|N|N|-|E|D|E| |D|N|-|L|L|N|N| |-|L|N|N|N|-|-| |N|N|N|N|N|-|-|
NU_39  |N|-|-|E|E|-|-| |D|D|N|-|D|D|D| |-|L|N|N|N|N|N| |-|N|N|-|-|-|-|
CT_40  |-|L|-|D|-|-|-| |-|-|N|-|-|L|L| |-|-|-|-|E|-|-| |-|-|-|D|E|-|-|
CT_41  |-|-|-|-|D|-|-| |-|-|L|-|-|-|-| |E|-|-|E|-|-|D| |-|-|-|L|-|-|-|
CT_42  |D|N|-|D|D|L|N| |-|D|D|D|D|-|-| |E|L|L|N|N|-|-| |N|N|N|-|L|L|N|
CT_43  |-|-|N|-|-|-|-| |-|N|-|-|N|N|N| |N|-|-|-|-|-|-| |-|D|-|-|-|-|-|
CT_44  |-|-|-|-|L|-|-| |N|-|-|-|-|D|E| |D|-|E|L|L|-|-| |D|-|N|N|-|-|-|
CT_45  |E|E|-|N|-|-|-| |N|-|-|E|D|-|-| |L|-|L|-|-|-|-| |E|D|D|D|E|N|N|
CT_46  |D|-|E|-|-|-|-| |E|N|-|E|-|L|L| |-|L|-|L|-|-|-| |-|E|-|-|L|-|-|
CT_47  |L|L|-|D|L|N|N| |-|L|L|L|N|-|-| |N|N|N|N|N|-|-| |N|N|N|N|-|E|N|
CT_48  |-|-|-|D|L|-|-| |-|D|-|-|-|-|-| |-|E|E|E|-|N|N| |-|N|N|-|L|-|-|
CT_49  |E|E|D|N|N|-|-| |E|E|N|N|N|-|-| |E|D|E|D|-|E|D| |L|L|L|-|D|L|L|
CT_50  |D|D|D|-|-|E|D| |D|-|D|-|E|-|-| |N|-|D|-|N|-|-| |-|E|E|L|N|-|-|
CT_51  |N|N|N|-|E|-|-| |-|-|-|-|E|-|-| |E|D|-|-|-|L|L| |L|N|-|-|-|-|-|
CT_52  |L|L|N|N|-|L|L| |L|L|-|-|D|-|-| |N|-|L|-|D|-|-| |-|L|L|-|E|-|-|
CT_53  |-|D|L|N|-|-|-| |-|-|E|-|-|-|-| |L|-|D|-|-|-|-| |D|-|-|E|E|E|E|
CT_54  |-|D|N|N|N|-|-| |E|D|D|D|E|-|-| |D|E|E|N|-|E|E| |D|D|L|-|D|D|E|
CT_55  |-|-|N|-|-|-|E| |L|-|-|-|-|-|-| |-|N|-|-|-|-|-| |N|-|-|L|-|-|-|
CT_56  |-|-|-|N|-|-|-| |N|-|-|-|E|-|-| |-|-|-|-|N|-|-| |-|-|-|-|L|-|E|
CT_57  |-|D|L|-|E|-|-| |L|-|E|N|-|-|-| |L|-|-|N|-|-|-| |E|E|D|-|-|-|-|
CT_58  |-|-|D|-|-|-|-| |L|-|-|-|-|-|E| |-|N|N|-|-|-|-| |-|-|D|-|-|-|-|
CT_59  |-|L|L|N|-|N|N| |N|-|E|D|L|-|-| |-|-|L|-|N|-|-| |D|-|D|D|D|-|-|
CT_60  |-|-|-|L|-|-|-| |L|-|-|D|D|E|D| |L|-|N|-|L|-|-| |-|D|-|D|-|-|-|
CT_61  |L|-|N|-|-|-|-| |E|-|D|D|-|-|-| |-|-|-|-|D|N|-| |-|-|N|-|-|-|-|
CT_62  |E|L|L|L|L|-|-| |D|D|E|L|L|-|-| |L|L|-|E|E|D|E| |D|-|E|E|D|L|L|
CT_63  |D|E|L|-|-|D|D| |E|D|E|-|D|-|-| |D|N|-|L|-|-|-| |L|N|-|-|L|-|-|
CT_64  |-|-|L|-|-|-|-| |N|N|N|-|D|L|L| |L|-|-|-|D|-|-| |E|-|E|N|-|-|-|
CT_65  |E|E|E|N|N|-|-| |D|L|N|N|N|-|-| |N|N|-|D|E|D|L| |N|-|D|E|N|N|N|
CT_66  |-|D|-|-|D|E|L| |-|E|N|N|N|-|-| |E|E|-|-|N|-|-| |L|L|N|N|-|-|-|
CT_67  |D|L|-|-|-|-|-| |-|L|-|-|-|-|-| |-|-|N|-|-|-|-| |-|L|-|-|-|-|-|
CT_68  |-|-|D|-|E|N|N| |-|-|-|N|-|-|-| |-|E|L|-|D|-|-| |D|D|-|-|N|-|-|
CT_69  |-|E|D|-|-|-|-| |-|-|-|E|D|D|L| |-|N|-|-|-|-|-| |L|-|D|E|E|-|-|
CT_70  |N|N|-|E|D|-|-| |N|N|-|-|-|D|D| |-|-|-|E|-|L|N| |-|L|L|L|N|-|-|
CT_71  |L|-|-|D|-|-|-| |-|-|-|-|L|-|-| |-|D|D|D|-|-|-| |-|-|-|N|-|-|E|
CT_72  |-|-|N|-|N|-|-| |-|-|N|-|-|-|-| |-|-|E|-|-|-|-| |-|-|-|N|-|-|-|
CT_73  |E|N|-|E|-|-|-| |-|-|-|-|L|-|-| |-|-|-|N|-|-|-| |-|D|-|-|E|-|-|
CT_74  |-|-|L|-|-|-|-| |D|-|-|D|N|-|-| |-|N|-|N|-|-|-| |L|-|-|-|-|-|-|
CT_75  |N|N|-|D|-|E|D| |-|N|-|N|-|E|D| |L|L|L|-|L|-|-| |-|L|-|L|-|-|-|
CT_76  |N|-|E|E|E|-|-| |D|E|L|L|L|-|-| |D|N|N|-|E|D|E| |D|E|-|D|E|E|D|
CT_77  |D|D|D|L|N|-|-| |E|D|E|D|N|-|-| |D|E|D|L|-|L|L| |N|-|E|E|L|L|L|
CT_78  |L|-|D|L|L|-|-| |L|L|L|L|L|-|-| |D|E|L|L|-|E|L| |N|-|D|D|E|D|D|
CT_79  |-|D|-|-|-|-|-| |D|-|-|N|-|N|-| |-|-|D|-|-|-|-| |-|D|-|-|-|-|-|
TR_80  |L|-|D|L|L|-|-| |L|-|-|L|L|-|-| |D|E|N|N|-|-|-| |E|E|D|-|D|-|-|
TR_81  |D|E|L|-|E|-|-| |L|-|-|-|D|-|-| |-|-|-|D|E|-|-| |E|D|-|-|N|-|-|
TR_82  |-|-|-|N|N|N|N| |-|L|L|-|L|-|-| |-|E|-|D|-|-|-| |-|L|-|-|L|-|-|
TR_83  |-|E|E|L|N|-|-| |L|N|-|E|D|-|-| |N|-|L|L|N|-|-| |D|E|L|-|-|-|-|
TR_84  |N|-|D|D|N|-|-| |D|-|D|E|E|-|-| |L|-|D|E|D|-|-| |-|N|-|L|N|-|-|
TR_85  |-|-|D|-|-|-|-| |D|-|-|-|-|N|-| |-|-|D|-|-|-|-| |-|-|D|-|-|-|-|
TR_86  |D|N|-|-|D|-|-| |N|-|D|-|-|D|L| |-|-|E|E|L|-|-| |-|-|E|-|-|-|-|
TR_87  |L|-|-|E|D|-|-| |D|N|N|-|E|L|L| |L|L|-|-|L|-|-| |-|-|E|E|D|-|-|
TR_88  |D|E|-|E|-|L|L| |-|D|D|-|-|E|E| |-|D|L|-|E|-|-| |D|-|N|N|-|-|-|
TR_89  |N|-|D|D|E|L|L| |-|D|D|D|E|-|-| |E|N|N|N|N|-|-| |L|L|-|L|L|L|N|
TR_90  |-|D|-|-|E|-|-| |L|-|-|-|N|-|-| |-|-|-|D|D|L|L| |N|-|D|N|-|-|-|
TR_91  |N|-|E|E|D|-|-| |E|N|N|N|N|-|-| |D|E|E|N|-|D|D| |N|-|D|D|E|L|L|
TR_92  |-|L|-|-|-|-|-| |-|L|-|-|-|-|-| |E|-|-|-|-|N|-| |-|N|-|-|-|-|-|
TR_93  |-|N|-|-|L|-|-| |L|-|N|-|E|-|-| |E|E|-|-|-|N|N| |-|-|E|D|-|-|-|
TR_94  |-|L|-|E|-|-|-| |-|-|E|-|D|N|N| |N|-|-|-|D|-|-| |N|-|-|E|D|-|-|
TR_95  |-|N|-|-|-|-|-| |-|-|N|-|-|-|D| |-|N|-|-|-|-|-| |L|-|-|-|-|-|-|
TR_96  |E|D|D|-|-|-|-| |D|-|E|D|-|-|-| |-|N|-|E|E|-|-| |L|L|-|E|D|E|D|
TR_97  |L|N|N|-|E|D|E| |E|D|-|L|L|-|-| |N|N|N|N|N|-|-| |D|D|-|E|E|D|E|
TR_98  |N|N|-|L|N|-|-| |E|L|-|-|E|-|-| |D|E|D|-|D|-|-| |D|E|-|N|N|-|-|
TR_99  |D|N|-|D|D|-|-| |-|-|E|E|-|-|-| |E|E|E|-|-|-|-| |E|N|-|E|E|D|E|
TR_100 |E|L|L|L|L|-|-| |E|E|E|D|D|-|-| |D|D|D|L|-|E|E| |E|D|E|-|E|E|L|
TR_101 |E|D|N|N|N|-|-| |N|N|N|N|N|-|-| |N|N|N|N|-|D|E| |N|-|E|D|E|L|L|
TR_102 |-|D|-|-|-|-|-| |N|-|-|-|-|-|-| |L|L|-|-|-|-|L| |-|-|-|-|-|-|-|
TR_103 |-|-|N|-|E|D|D| |-|N|-|E|-|-|-| |-|L|L|-|-|-|-| |-|N|N|-|N|-|-|
TR_104 |E|D|-|E|E|E|E| |E|-|E|E|D|D|D| |-|D|E|D|E|-|-| |E|E|E|L|L|-|-|
TR_105 |-|E|N|-|L|N|N| |N|-|L|N|N|-|-| |L|-|-|D|-|-|-| |-|N|N|-|-|D|E|
TR_106 |L|-|E|D|D|E|D| |-|E|D|L|L|-|-| |E|D|D|L|L|-|-| |L|L|L|L|-|N|N|
TR_107 |N|-|E|-|-|-|-| |D|E|-|N|-|E|E| |L|L|L|L|L|-|-| |-|D|L|N|-|-|-|
TR_108 |-|-|-|-|L|-|-| |-|E|-|-|-|N|-| |-|-|-|E|-|-|-| |-|-|N|-|-|-|-|
TR_109 |-|L|L|N|-|-|-| |N|-|E|-|-|E|E| |-|E|L|L|L|-|-| |D|E|-|D|D|-|-|


Hard constraint violations
--------------------------

Minimal coverage constraints: 0
Required skill constraints: 0
Illegal shift type succession constraints: 0
Single assignment per day: 0


Cost per constraint type
------------------------

Total assignment constraints: 840
Consecutive constraints: 40470
Non working days constraints: 15690
Preferences: 130
Max working weekend: 0
Complete weekends: 0
Optimal coverage constraints: 30

------------------------

Total cost: 57160
